Set parameter TokenServer to value "license1.computecanada.ca"
Read LP format model from file Data/sens-data/complex/full-model/exp-full-cw1-cc1-cv10-gam95-complex-p2.lp
Reading time = 1.51 seconds
: 971 rows, 6999 columns, 1673745 nonzeros
Gurobi Optimizer version 9.5.0 build v9.5.0rc5 (linux64)
Thread count: 64 physical cores, 64 logical processors, using up to 32 threads
Optimize a model with 971 rows, 6999 columns and 1673745 nonzeros
Model fingerprint: 0x29d0bb97
Coefficient statistics:
  Matrix range     [5e-03, 9e+01]
  Objective range  [1e+02, 2e+04]
  Bounds range     [0e+00, 0e+00]
  RHS range        [1e+00, 2e+00]

Concurrent LP optimizer: primal simplex, dual simplex, and barrier
Showing barrier log only...

Presolve removed 285 rows and 0 columns
Presolve time: 0.39s
Presolved: 686 rows, 6999 columns, 735863 nonzeros

Ordering time: 0.00s

Barrier statistics:
 AA' NZ     : 1.891e+05
 Factor NZ  : 2.148e+05 (roughly 5 MB of memory)
 Factor Ops : 8.993e+07 (less than 1 second per iteration)
 Threads    : 30

                  Objective                Residual
Iter       Primal          Dual         Primal    Dual     Compl     Time
   0   8.82929865e+07 -7.45430148e+04  1.25e+05 3.52e+01  7.79e+03     1s
   1   1.58320349e+07 -1.60481243e+05  2.22e+04 1.93e+01  1.38e+03     2s
   2   1.02033136e+06 -1.43555714e+05  1.50e+03 0.00e+00  1.03e+02     3s
   3   1.84706124e+05 -1.03865406e+05  3.49e+02 0.00e+00  2.68e+01     4s
   4  -1.68998721e+04 -8.72739784e+04  7.54e+01 0.00e+00  7.24e+00     5s
   5  -5.84414152e+04 -7.80319248e+04  1.99e+01 0.00e+00  2.09e+00     6s
   6  -6.90334085e+04 -7.58055469e+04  6.12e+00 0.00e+00  7.43e-01     7s
   7  -7.21772204e+04 -7.50531299e+04  2.20e+00 0.00e+00  3.24e-01    14s
   8  -7.32769250e+04 -7.46865087e+04  8.72e-01 0.00e+00  1.63e-01    15s
   9  -7.37351837e+04 -7.43595207e+04  3.46e-01 0.00e+00  7.22e-02    16s
  10  -7.39461480e+04 -7.42159506e+04  1.13e-01 0.00e+00  3.15e-02    16s
  11  -7.40287534e+04 -7.41254125e+04  2.63e-02 0.00e+00  1.14e-02    17s
  12  -7.40478121e+04 -7.41034822e+04  1.15e-02 0.00e+00  6.63e-03    18s
  13  -7.40541093e+04 -7.40921374e+04  7.17e-03 0.00e+00  4.52e-03    18s
  14  -7.40589658e+04 -7.40846667e+04  3.93e-03 0.00e+00  3.09e-03    19s
  15  -7.40631083e+04 -7.40773773e+04  1.41e-03 0.00e+00  1.76e-03    20s
  16  -7.40644129e+04 -7.40731263e+04  8.23e-04 0.00e+00  1.07e-03    21s
  17  -7.40652786e+04 -7.40715329e+04  5.20e-04 0.00e+00  7.74e-04    22s
  18  -7.40660072e+04 -7.40701343e+04  2.90e-04 0.00e+00  5.14e-04    23s
  19  -7.40664852e+04 -7.40692950e+04  1.51e-04 0.00e+00  3.54e-04    24s
  20  -7.40667752e+04 -7.40683843e+04  7.20e-05 0.00e+00  2.03e-04    24s
  21  -7.40669021e+04 -7.40681364e+04  4.69e-05 0.00e+00  1.57e-04    25s
  22  -7.40670129e+04 -7.40678397e+04  2.89e-05 0.00e+00  1.05e-04    26s
  23  -7.40670914e+04 -7.40675869e+04  1.78e-05 0.00e+00  6.30e-05    27s
  24  -7.40671553e+04 -7.40674699e+04  1.09e-05 0.00e+00  4.00e-05    28s
  25  -7.40671918e+04 -7.40674043e+04  7.34e-06 0.00e+00  2.70e-05    29s
  26  -7.40672394e+04 -7.40673649e+04  2.92e-06 0.00e+00  1.61e-05    29s
  27  -7.40672672e+04 -7.40673215e+04  7.86e-07 0.00e+00  7.00e-06    30s
  28  -7.40672787e+04 -7.40672908e+04  1.57e-07 0.00e+00  1.56e-06    31s
  29  -7.40672807e+04 -7.40672835e+04  4.91e-08 0.00e+00  3.58e-07    33s
  30  -7.40672818e+04 -7.40672829e+04  1.35e-08 0.00e+00  1.42e-07    34s
  31  -7.40672822e+04 -7.40672828e+04  6.44e-09 0.00e+00  7.82e-08    35s

Barrier solved model in 31 iterations and 34.83 seconds (0.93 work units)
Optimal objective -7.40672822e+04

Crossover log...

     158 DPushes remaining with DInf 0.0000000e+00                35s
       0 DPushes remaining with DInf 0.0000000e+00                39s

      13 PPushes remaining with PInf 2.4417975e-05                39s
       0 PPushes remaining with PInf 3.4301977e-04                39s

  Push phase complete: Pinf 3.4301977e-04, Dinf 8.6267631e-10     39s

Iteration    Objective       Primal Inf.    Dual Inf.      Time
     156   -7.4067283e+04   3.430198e-04   0.000000e+00     40s
     213   -7.4067283e+04   1.880646e-06   1.969928e+09     45s
     344   -7.4067283e+04   0.000000e+00   7.301301e+01     52s
Extra simplex iterations after uncrush: 226
     439   -7.4067283e+04   0.000000e+00   0.000000e+00     53s

Solved with barrier
Solved in 439 iterations and 53.27 seconds (2.37 work units)
Optimal objective -7.406728256e+04
